letting numberLocations be  40
letting costs be function (
(0,0) --> 0,
(0,1) --> 49,
(0,2) --> 19,
(0,3) --> 39,
(0,4) --> 14,
(0,5) --> 63,
(0,6) --> 65,
(0,7) --> 72,
(0,8) --> 68,
(0,9) --> 25,
(0,10) --> 84,
(0,11) --> 67,
(0,12) --> 76,
(0,13) --> 68,
(0,14) --> 58,
(0,15) --> 69,
(0,16) --> 75,
(0,17) --> 60,
(0,18) --> 33,
(0,19) --> 19,
(0,20) --> 76,
(0,21) --> 32,
(0,22) --> 72,
(0,23) --> 79,
(0,24) --> 12,
(0,25) --> 12,
(0,26) --> 21,
(0,27) --> 19,
(0,28) --> 59,
(0,29) --> 56,
(0,30) --> 70,
(0,31) --> 70,
(0,32) --> 73,
(0,33) --> 69,
(0,34) --> 73,
(0,35) --> 16,
(0,36) --> 72,
(0,37) --> 25,
(0,38) --> 20,
(0,39) --> 15,
(0,40) --> 77,
(1,0) --> 49,
(1,1) --> 0,
(1,2) --> 62,
(1,3) --> 87,
(1,4) --> 54,
(1,5) --> 40,
(1,6) --> 49,
(1,7) --> 42,
(1,8) --> 38,
(1,9) --> 73,
(1,10) --> 49,
(1,11) --> 42,
(1,12) --> 41,
(1,13) --> 40,
(1,14) --> 11,
(1,15) --> 44,
(1,16) --> 44,
(1,17) --> 11,
(1,18) --> 82,
(1,19) --> 44,
(1,20) --> 45,
(1,21) --> 81,
(1,22) --> 45,
(1,23) --> 44,
(1,24) --> 56,
(1,25) --> 48,
(1,26) --> 42,
(1,27) --> 46,
(1,28) --> 10,
(1,29) --> 9,
(1,30) --> 41,
(1,31) --> 44,
(1,32) --> 38,
(1,33) --> 45,
(1,34) --> 45,
(1,35) --> 56,
(1,36) --> 39,
(1,37) --> 74,
(1,38) --> 48,
(1,39) --> 48,
(1,40) --> 46,
(2,0) --> 19,
(2,1) --> 62,
(2,2) --> 0,
(2,3) --> 27,
(2,4) --> 31,
(2,5) --> 82,
(2,6) --> 64,
(2,7) --> 91,
(2,8) --> 86,
(2,9) --> 16,
(2,10) --> 102,
(2,11) --> 68,
(2,12) --> 93,
(2,13) --> 86,
(2,14) --> 72,
(2,15) --> 87,
(2,16) --> 93,
(2,17) --> 74,
(2,18) --> 24,
(2,19) --> 38,
(2,20) --> 94,
(2,21) --> 25,
(2,22) --> 90,
(2,23) --> 97,
(2,24) --> 7,
(2,25) --> 14,
(2,26) --> 40,
(2,27) --> 38,
(2,28) --> 72,
(2,29) --> 70,
(2,30) --> 88,
(2,31) --> 89,
(2,32) --> 90,
(2,33) --> 70,
(2,34) --> 74,
(2,35) --> 7,
(2,36) --> 89,
(2,37) --> 17,
(2,38) --> 38,
(2,39) --> 33,
(2,40) --> 95,
(3,0) --> 39,
(3,1) --> 87,
(3,2) --> 27,
(3,3) --> 0,
(3,4) --> 42,
(3,5) --> 100,
(3,6) --> 90,
(3,7) --> 110,
(3,8) --> 106,
(3,9) --> 14,
(3,10) --> 122,
(3,11) --> 95,
(3,12) --> 114,
(3,13) --> 105,
(3,14) --> 97,
(3,15) --> 105,
(3,16) --> 113,
(3,17) --> 98,
(3,18) --> 7,
(3,19) --> 53,
(3,20) --> 113,
(3,21) --> 10,
(3,22) --> 109,
(3,23) --> 117,
(3,24) --> 32,
(3,25) --> 40,
(3,26) --> 56,
(3,27) --> 52,
(3,28) --> 97,
(3,29) --> 94,
(3,30) --> 107,
(3,31) --> 107,
(3,32) --> 111,
(3,33) --> 97,
(3,34) --> 101,
(3,35) --> 34,
(3,36) --> 110,
(3,37) --> 13,
(3,38) --> 51,
(3,39) --> 48,
(3,40) --> 115,
(4,0) --> 14,
(4,1) --> 54,
(4,2) --> 31,
(4,3) --> 42,
(4,4) --> 0,
(4,5) --> 58,
(4,6) --> 78,
(4,7) --> 68,
(4,8) --> 64,
(4,9) --> 29,
(4,10) --> 80,
(4,11) --> 78,
(4,12) --> 72,
(4,13) --> 63,
(4,14) --> 61,
(4,15) --> 63,
(4,16) --> 71,
(4,17) --> 63,
(4,18) --> 35,
(4,19) --> 11,
(4,20) --> 71,
(4,21) --> 33,
(4,22) --> 66,
(4,23) --> 76,
(4,24) --> 25,
(4,25) --> 26,
(4,26) --> 14,
(4,27) --> 10,
(4,28) --> 63,
(4,29) --> 58,
(4,30) --> 65,
(4,31) --> 64,
(4,32) --> 69,
(4,33) --> 81,
(4,34) --> 84,
(4,35) --> 30,
(4,36) --> 68,
(4,37) --> 30,
(4,38) --> 9,
(4,39) --> 6,
(4,40) --> 73,
(5,0) --> 63,
(5,1) --> 40,
(5,2) --> 82,
(5,3) --> 100,
(5,4) --> 58,
(5,5) --> 0,
(5,6) --> 89,
(5,7) --> 11,
(5,8) --> 9,
(5,9) --> 86,
(5,10) --> 24,
(5,11) --> 82,
(5,12) --> 17,
(5,13) --> 6,
(5,14) --> 35,
(5,15) --> 5,
(5,16) --> 14,
(5,17) --> 37,
(5,18) --> 93,
(5,19) --> 47,
(5,20) --> 14,
(5,21) --> 91,
(5,22) --> 9,
(5,23) --> 20,
(5,24) --> 75,
(5,25) --> 70,
(5,26) --> 44,
(5,27) --> 48,
(5,28) --> 42,
(5,29) --> 34,
(5,30) --> 8,
(5,31) --> 7,
(5,32) --> 15,
(5,33) --> 85,
(5,34) --> 85,
(5,35) --> 77,
(5,36) --> 13,
(5,37) --> 87,
(5,38) --> 49,
(5,39) --> 52,
(5,40) --> 16,
(6,0) --> 65,
(6,1) --> 49,
(6,2) --> 64,
(6,3) --> 90,
(6,4) --> 78,
(6,5) --> 89,
(6,6) --> 0,
(6,7) --> 91,
(6,8) --> 86,
(6,9) --> 80,
(6,10) --> 96,
(6,11) --> 11,
(6,12) --> 89,
(6,13) --> 88,
(6,14) --> 57,
(6,15) --> 93,
(6,16) --> 92,
(6,17) --> 55,
(6,18) --> 88,
(6,19) --> 75,
(6,20) --> 93,
(6,21) --> 89,
(6,22) --> 93,
(6,23) --> 91,
(6,24) --> 63,
(6,25) --> 55,
(6,26) --> 74,
(6,27) --> 76,
(6,28) --> 50,
(6,29) --> 57,
(6,30) --> 90,
(6,31) --> 93,
(6,32) --> 86,
(6,33) --> 10,
(6,34) --> 14,
(6,35) --> 58,
(6,36) --> 87,
(6,37) --> 81,
(6,38) --> 78,
(6,39) --> 75,
(6,40) --> 94,
(7,0) --> 72,
(7,1) --> 42,
(7,2) --> 91,
(7,3) --> 110,
(7,4) --> 68,
(7,5) --> 11,
(7,6) --> 91,
(7,7) --> 0,
(7,8) --> 5,
(7,9) --> 96,
(7,10) --> 13,
(7,11) --> 83,
(7,12) --> 7,
(7,13) --> 5,
(7,14) --> 34,
(7,15) --> 7,
(7,16) --> 3,
(7,17) --> 37,
(7,18) --> 103,
(7,19) --> 57,
(7,20) --> 4,
(7,21) --> 101,
(7,22) --> 4,
(7,23) --> 9,
(7,24) --> 83,
(7,25) --> 78,
(7,26) --> 54,
(7,27) --> 58,
(7,28) --> 42,
(7,29) --> 35,
(7,30) --> 3,
(7,31) --> 6,
(7,32) --> 7,
(7,33) --> 86,
(7,34) --> 86,
(7,35) --> 86,
(7,36) --> 5,
(7,37) --> 97,
(7,38) --> 59,
(7,39) --> 62,
(7,40) --> 5,
(8,0) --> 68,
(8,1) --> 38,
(8,2) --> 86,
(8,3) --> 106,
(8,4) --> 64,
(8,5) --> 9,
(8,6) --> 86,
(8,7) --> 5,
(8,8) --> 0,
(8,9) --> 92,
(8,10) --> 16,
(8,11) --> 79,
(8,12) --> 9,
(8,13) --> 3,
(8,14) --> 30,
(8,15) --> 8,
(8,16) --> 7,
(8,17) --> 32,
(8,18) --> 99,
(8,19) --> 53,
(8,20) --> 8,
(8,21) --> 97,
(8,22) --> 7,
(8,23) --> 12,
(8,24) --> 79,
(8,25) --> 73,
(8,26) --> 50,
(8,27) --> 54,
(8,28) --> 38,
(8,29) --> 30,
(8,30) --> 4,
(8,31) --> 8,
(8,32) --> 6,
(8,33) --> 81,
(8,34) --> 81,
(8,35) --> 81,
(8,36) --> 4,
(8,37) --> 92,
(8,38) --> 55,
(8,39) --> 58,
(8,40) --> 9,
(9,0) --> 25,
(9,1) --> 73,
(9,2) --> 16,
(9,3) --> 14,
(9,4) --> 29,
(9,5) --> 86,
(9,6) --> 80,
(9,7) --> 96,
(9,8) --> 92,
(9,9) --> 0,
(9,10) --> 108,
(9,11) --> 84,
(9,12) --> 100,
(9,13) --> 91,
(9,14) --> 83,
(9,15) --> 92,
(9,16) --> 99,
(9,17) --> 84,
(9,18) --> 9,
(9,19) --> 40,
(9,20) --> 100,
(9,21) --> 9,
(9,22) --> 95,
(9,23) --> 103,
(9,24) --> 19,
(9,25) --> 27,
(9,26) --> 42,
(9,27) --> 39,
(9,28) --> 83,
(9,29) --> 80,
(9,30) --> 93,
(9,31) --> 93,
(9,32) --> 97,
(9,33) --> 86,
(9,34) --> 90,
(9,35) --> 22,
(9,36) --> 96,
(9,37) --> 1,
(9,38) --> 38,
(9,39) --> 34,
(9,40) --> 101,
(10,0) --> 84,
(10,1) --> 49,
(10,2) --> 102,
(10,3) --> 122,
(10,4) --> 80,
(10,5) --> 24,
(10,6) --> 96,
(10,7) --> 13,
(10,8) --> 16,
(10,9) --> 108,
(10,10) --> 0,
(10,11) --> 87,
(10,12) --> 9,
(10,13) --> 18,
(10,14) --> 39,
(10,15) --> 19,
(10,16) --> 10,
(10,17) --> 41,
(10,18) --> 115,
(10,19) --> 69,
(10,20) --> 9,
(10,21) --> 113,
(10,22) --> 16,
(10,23) --> 5,
(10,24) --> 95,
(10,25) --> 89,
(10,26) --> 66,
(10,27) --> 70,
(10,28) --> 46,
(10,29) --> 40,
(10,30) --> 16,
(10,31) --> 18,
(10,32) --> 12,
(10,33) --> 90,
(10,34) --> 89,
(10,35) --> 97,
(10,36) --> 13,
(10,37) --> 109,
(10,38) --> 72,
(10,39) --> 75,
(10,40) --> 8,
(11,0) --> 67,
(11,1) --> 42,
(11,2) --> 68,
(11,3) --> 95,
(11,4) --> 78,
(11,5) --> 82,
(11,6) --> 11,
(11,7) --> 83,
(11,8) --> 79,
(11,9) --> 84,
(11,10) --> 87,
(11,11) --> 0,
(11,12) --> 81,
(11,13) --> 81,
(11,14) --> 49,
(11,15) --> 85,
(11,16) --> 84,
(11,17) --> 47,
(11,18) --> 92,
(11,19) --> 73,
(11,20) --> 85,
(11,21) --> 93,
(11,22) --> 86,
(11,23) --> 83,
(11,24) --> 66,
(11,25) --> 58,
(11,26) --> 72,
(11,27) --> 75,
(11,28) --> 41,
(11,29) --> 49,
(11,30) --> 82,
(11,31) --> 86,
(11,32) --> 78,
(11,33) --> 3,
(11,34) --> 6,
(11,35) --> 62,
(11,36) --> 79,
(11,37) --> 85,
(11,38) --> 77,
(11,39) --> 74,
(11,40) --> 86,
(12,0) --> 76,
(12,1) --> 41,
(12,2) --> 93,
(12,3) --> 114,
(12,4) --> 72,
(12,5) --> 17,
(12,6) --> 89,
(12,7) --> 7,
(12,8) --> 9,
(12,9) --> 100,
(12,10) --> 9,
(12,11) --> 81,
(12,12) --> 0,
(12,13) --> 11,
(12,14) --> 32,
(12,15) --> 14,
(12,16) --> 5,
(12,17) --> 34,
(12,18) --> 107,
(12,19) --> 61,
(12,20) --> 6,
(12,21) --> 105,
(12,22) --> 11,
(12,23) --> 4,
(12,24) --> 86,
(12,25) --> 80,
(12,26) --> 58,
(12,27) --> 62,
(12,28) --> 39,
(12,29) --> 33,
(12,30) --> 9,
(12,31) --> 13,
(12,32) --> 3,
(12,33) --> 83,
(12,34) --> 83,
(12,35) --> 88,
(12,36) --> 4,
(12,37) --> 100,
(12,38) --> 64,
(12,39) --> 67,
(12,40) --> 6,
(13,0) --> 68,
(13,1) --> 40,
(13,2) --> 86,
(13,3) --> 105,
(13,4) --> 63,
(13,5) --> 6,
(13,6) --> 88,
(13,7) --> 5,
(13,8) --> 3,
(13,9) --> 91,
(13,10) --> 18,
(13,11) --> 81,
(13,12) --> 11,
(13,13) --> 0,
(13,14) --> 32,
(13,15) --> 5,
(13,16) --> 8,
(13,17) --> 35,
(13,18) --> 98,
(13,19) --> 52,
(13,20) --> 9,
(13,21) --> 96,
(13,22) --> 5,
(13,23) --> 14,
(13,24) --> 79,
(13,25) --> 73,
(13,26) --> 49,
(13,27) --> 53,
(13,28) --> 40,
(13,29) --> 32,
(13,30) --> 2,
(13,31) --> 5,
(13,32) --> 9,
(13,33) --> 84,
(13,34) --> 84,
(13,35) --> 81,
(13,36) --> 7,
(13,37) --> 92,
(13,38) --> 54,
(13,39) --> 57,
(13,40) --> 10,
(14,0) --> 58,
(14,1) --> 11,
(14,2) --> 72,
(14,3) --> 97,
(14,4) --> 61,
(14,5) --> 35,
(14,6) --> 57,
(14,7) --> 34,
(14,8) --> 30,
(14,9) --> 83,
(14,10) --> 39,
(14,11) --> 49,
(14,12) --> 32,
(14,13) --> 32,
(14,14) --> 0,
(14,15) --> 37,
(14,16) --> 35,
(14,17) --> 3,
(14,18) --> 91,
(14,19) --> 50,
(14,20) --> 36,
(14,21) --> 90,
(14,22) --> 37,
(14,23) --> 35,
(14,24) --> 66,
(14,25) --> 58,
(14,26) --> 48,
(14,27) --> 52,
(14,28) --> 8,
(14,29) --> 2,
(14,30) --> 34,
(14,31) --> 37,
(14,32) --> 29,
(14,33) --> 51,
(14,34) --> 51,
(14,35) --> 66,
(14,36) --> 30,
(14,37) --> 83,
(14,38) --> 54,
(14,39) --> 55,
(14,40) --> 37,
(15,0) --> 69,
(15,1) --> 44,
(15,2) --> 87,
(15,3) --> 105,
(15,4) --> 63,
(15,5) --> 5,
(15,6) --> 93,
(15,7) --> 7,
(15,8) --> 8,
(15,9) --> 92,
(15,10) --> 19,
(15,11) --> 85,
(15,12) --> 14,
(15,13) --> 5,
(15,14) --> 37,
(15,15) --> 0,
(15,16) --> 9,
(15,17) --> 40,
(15,18) --> 98,
(15,19) --> 52,
(15,20) --> 10,
(15,21) --> 96,
(15,22) --> 4,
(15,23) --> 16,
(15,24) --> 80,
(15,25) --> 75,
(15,26) --> 49,
(15,27) --> 53,
(15,28) --> 45,
(15,29) --> 37,
(15,30) --> 5,
(15,31) --> 1,
(15,32) --> 13,
(15,33) --> 88,
(15,34) --> 89,
(15,35) --> 83,
(15,36) --> 11,
(15,37) --> 92,
(15,38) --> 54,
(15,39) --> 58,
(15,40) --> 11,
(16,0) --> 75,
(16,1) --> 44,
(16,2) --> 93,
(16,3) --> 113,
(16,4) --> 71,
(16,5) --> 14,
(16,6) --> 92,
(16,7) --> 3,
(16,8) --> 7,
(16,9) --> 99,
(16,10) --> 10,
(16,11) --> 84,
(16,12) --> 5,
(16,13) --> 8,
(16,14) --> 35,
(16,15) --> 9,
(16,16) --> 0,
(16,17) --> 38,
(16,18) --> 106,
(16,19) --> 59,
(16,20) --> 1,
(16,21) --> 104,
(16,22) --> 6,
(16,23) --> 7,
(16,24) --> 86,
(16,25) --> 80,
(16,26) --> 57,
(16,27) --> 61,
(16,28) --> 43,
(16,29) --> 36,
(16,30) --> 6,
(16,31) --> 8,
(16,32) --> 6,
(16,33) --> 87,
(16,34) --> 87,
(16,35) --> 88,
(16,36) --> 5,
(16,37) --> 99,
(16,38) --> 62,
(16,39) --> 65,
(16,40) --> 2,
(17,0) --> 60,
(17,1) --> 11,
(17,2) --> 74,
(17,3) --> 98,
(17,4) --> 63,
(17,5) --> 37,
(17,6) --> 55,
(17,7) --> 37,
(17,8) --> 32,
(17,9) --> 84,
(17,10) --> 41,
(17,11) --> 47,
(17,12) --> 34,
(17,13) --> 35,
(17,14) --> 3,
(17,15) --> 40,
(17,16) --> 38,
(17,17) --> 0,
(17,18) --> 93,
(17,19) --> 53,
(17,20) --> 38,
(17,21) --> 92,
(17,22) --> 40,
(17,23) --> 36,
(17,24) --> 67,
(17,25) --> 59,
(17,26) --> 50,
(17,27) --> 55,
(17,28) --> 5,
(17,29) --> 5,
(17,30) --> 36,
(17,31) --> 40,
(17,32) --> 31,
(17,33) --> 49,
(17,34) --> 49,
(17,35) --> 67,
(17,36) --> 32,
(17,37) --> 85,
(17,38) --> 57,
(17,39) --> 57,
(17,40) --> 39,
(18,0) --> 33,
(18,1) --> 82,
(18,2) --> 24,
(18,3) --> 7,
(18,4) --> 35,
(18,5) --> 93,
(18,6) --> 88,
(18,7) --> 103,
(18,8) --> 99,
(18,9) --> 9,
(18,10) --> 115,
(18,11) --> 92,
(18,12) --> 107,
(18,13) --> 98,
(18,14) --> 91,
(18,15) --> 98,
(18,16) --> 106,
(18,17) --> 93,
(18,18) --> 0,
(18,19) --> 46,
(18,20) --> 107,
(18,21) --> 3,
(18,22) --> 102,
(18,23) --> 111,
(18,24) --> 27,
(18,25) --> 36,
(18,26) --> 49,
(18,27) --> 45,
(18,28) --> 92,
(18,29) --> 89,
(18,30) --> 100,
(18,31) --> 100,
(18,32) --> 104,
(18,33) --> 94,
(18,34) --> 98,
(18,35) --> 30,
(18,36) --> 103,
(18,37) --> 8,
(18,38) --> 44,
(18,39) --> 40,
(18,40) --> 108,
(19,0) --> 19,
(19,1) --> 44,
(19,2) --> 38,
(19,3) --> 53,
(19,4) --> 11,
(19,5) --> 47,
(19,6) --> 75,
(19,7) --> 57,
(19,8) --> 53,
(19,9) --> 40,
(19,10) --> 69,
(19,11) --> 73,
(19,12) --> 61,
(19,13) --> 52,
(19,14) --> 50,
(19,15) --> 52,
(19,16) --> 59,
(19,17) --> 53,
(19,18) --> 46,
(19,19) --> 0,
(19,20) --> 60,
(19,21) --> 44,
(19,22) --> 55,
(19,23) --> 65,
(19,24) --> 31,
(19,25) --> 29,
(19,26) --> 3,
(19,27) --> 2,
(19,28) --> 54,
(19,29) --> 48,
(19,30) --> 54,
(19,31) --> 53,
(19,32) --> 58,
(19,33) --> 76,
(19,34) --> 79,
(19,35) --> 35,
(19,36) --> 57,
(19,37) --> 40,
(19,38) --> 4,
(19,39) --> 6,
(19,40) --> 62,
(20,0) --> 76,
(20,1) --> 45,
(20,2) --> 94,
(20,3) --> 113,
(20,4) --> 71,
(20,5) --> 14,
(20,6) --> 93,
(20,7) --> 4,
(20,8) --> 8,
(20,9) --> 100,
(20,10) --> 9,
(20,11) --> 85,
(20,12) --> 6,
(20,13) --> 9,
(20,14) --> 36,
(20,15) --> 10,
(20,16) --> 1,
(20,17) --> 38,
(20,18) --> 107,
(20,19) --> 60,
(20,20) --> 0,
(20,21) --> 105,
(20,22) --> 6,
(20,23) --> 7,
(20,24) --> 87,
(20,25) --> 81,
(20,26) --> 57,
(20,27) --> 61,
(20,28) --> 44,
(20,29) --> 37,
(20,30) --> 6,
(20,31) --> 9,
(20,32) --> 7,
(20,33) --> 88,
(20,34) --> 88,
(20,35) --> 89,
(20,36) --> 6,
(20,37) --> 100,
(20,38) --> 63,
(20,39) --> 66,
(20,40) --> 1,
(21,0) --> 32,
(21,1) --> 81,
(21,2) --> 25,
(21,3) --> 10,
(21,4) --> 33,
(21,5) --> 91,
(21,6) --> 89,
(21,7) --> 101,
(21,8) --> 97,
(21,9) --> 9,
(21,10) --> 113,
(21,11) --> 93,
(21,12) --> 105,
(21,13) --> 96,
(21,14) --> 90,
(21,15) --> 96,
(21,16) --> 104,
(21,17) --> 92,
(21,18) --> 3,
(21,19) --> 44,
(21,20) --> 105,
(21,21) --> 0,
(21,22) --> 100,
(21,23) --> 109,
(21,24) --> 27,
(21,25) --> 36,
(21,26) --> 47,
(21,27) --> 43,
(21,28) --> 91,
(21,29) --> 88,
(21,30) --> 98,
(21,31) --> 98,
(21,32) --> 102,
(21,33) --> 95,
(21,34) --> 99,
(21,35) --> 31,
(21,36) --> 101,
(21,37) --> 8,
(21,38) --> 42,
(21,39) --> 39,
(21,40) --> 106,
(22,0) --> 72,
(22,1) --> 45,
(22,2) --> 90,
(22,3) --> 109,
(22,4) --> 66,
(22,5) --> 9,
(22,6) --> 93,
(22,7) --> 4,
(22,8) --> 7,
(22,9) --> 95,
(22,10) --> 16,
(22,11) --> 86,
(22,12) --> 11,
(22,13) --> 5,
(22,14) --> 37,
(22,15) --> 4,
(22,16) --> 6,
(22,17) --> 40,
(22,18) --> 102,
(22,19) --> 55,
(22,20) --> 6,
(22,21) --> 100,
(22,22) --> 0,
(22,23) --> 13,
(22,24) --> 83,
(22,25) --> 78,
(22,26) --> 52,
(22,27) --> 56,
(22,28) --> 45,
(22,29) --> 37,
(22,30) --> 4,
(22,31) --> 2,
(22,32) --> 11,
(22,33) --> 89,
(22,34) --> 89,
(22,35) --> 85,
(22,36) --> 9,
(22,37) --> 95,
(22,38) --> 57,
(22,39) --> 61,
(22,40) --> 8,
(23,0) --> 79,
(23,1) --> 44,
(23,2) --> 97,
(23,3) --> 117,
(23,4) --> 76,
(23,5) --> 20,
(23,6) --> 91,
(23,7) --> 9,
(23,8) --> 12,
(23,9) --> 103,
(23,10) --> 5,
(23,11) --> 83,
(23,12) --> 4,
(23,13) --> 14,
(23,14) --> 35,
(23,15) --> 16,
(23,16) --> 7,
(23,17) --> 36,
(23,18) --> 111,
(23,19) --> 65,
(23,20) --> 7,
(23,21) --> 109,
(23,22) --> 13,
(23,23) --> 0,
(23,24) --> 90,
(23,25) --> 84,
(23,26) --> 62,
(23,27) --> 66,
(23,28) --> 41,
(23,29) --> 35,
(23,30) --> 12,
(23,31) --> 15,
(23,32) --> 7,
(23,33) --> 85,
(23,34) --> 85,
(23,35) --> 92,
(23,36) --> 8,
(23,37) --> 104,
(23,38) --> 67,
(23,39) --> 70,
(23,40) --> 6,
(24,0) --> 12,
(24,1) --> 56,
(24,2) --> 7,
(24,3) --> 32,
(24,4) --> 25,
(24,5) --> 75,
(24,6) --> 63,
(24,7) --> 83,
(24,8) --> 79,
(24,9) --> 19,
(24,10) --> 95,
(24,11) --> 66,
(24,12) --> 86,
(24,13) --> 79,
(24,14) --> 66,
(24,15) --> 80,
(24,16) --> 86,
(24,17) --> 67,
(24,18) --> 27,
(24,19) --> 31,
(24,20) --> 87,
(24,21) --> 27,
(24,22) --> 83,
(24,23) --> 90,
(24,24) --> 0,
(24,25) --> 9,
(24,26) --> 33,
(24,27) --> 31,
(24,28) --> 66,
(24,29) --> 64,
(24,30) --> 81,
(24,31) --> 81,
(24,32) --> 83,
(24,33) --> 68,
(24,34) --> 72,
(24,35) --> 6,
(24,36) --> 82,
(24,37) --> 20,
(24,38) --> 31,
(24,39) --> 26,
(24,40) --> 88,
(25,0) --> 12,
(25,1) --> 48,
(25,2) --> 14,
(25,3) --> 40,
(25,4) --> 26,
(25,5) --> 70,
(25,6) --> 55,
(25,7) --> 78,
(25,8) --> 73,
(25,9) --> 27,
(25,10) --> 89,
(25,11) --> 58,
(25,12) --> 80,
(25,13) --> 73,
(25,14) --> 58,
(25,15) --> 75,
(25,16) --> 80,
(25,17) --> 59,
(25,18) --> 36,
(25,19) --> 29,
(25,20) --> 81,
(25,21) --> 36,
(25,22) --> 78,
(25,23) --> 84,
(25,24) --> 9,
(25,25) --> 0,
(25,26) --> 31,
(25,27) --> 30,
(25,28) --> 57,
(25,29) --> 56,
(25,30) --> 75,
(25,31) --> 76,
(25,32) --> 77,
(25,33) --> 60,
(25,34) --> 64,
(25,35) --> 8,
(25,36) --> 76,
(25,37) --> 28,
(25,38) --> 31,
(25,39) --> 26,
(25,40) --> 83,
(26,0) --> 21,
(26,1) --> 42,
(26,2) --> 40,
(26,3) --> 56,
(26,4) --> 14,
(26,5) --> 44,
(26,6) --> 74,
(26,7) --> 54,
(26,8) --> 50,
(26,9) --> 42,
(26,10) --> 66,
(26,11) --> 72,
(26,12) --> 58,
(26,13) --> 49,
(26,14) --> 48,
(26,15) --> 49,
(26,16) --> 57,
(26,17) --> 50,
(26,18) --> 49,
(26,19) --> 3,
(26,20) --> 57,
(26,21) --> 47,
(26,22) --> 52,
(26,23) --> 62,
(26,24) --> 33,
(26,25) --> 31,
(26,26) --> 0,
(26,27) --> 4,
(26,28) --> 51,
(26,29) --> 46,
(26,30) --> 51,
(26,31) --> 51,
(26,32) --> 55,
(26,33) --> 75,
(26,34) --> 78,
(26,35) --> 37,
(26,36) --> 54,
(26,37) --> 43,
(26,38) --> 6,
(26,39) --> 9,
(26,40) --> 59,
(27,0) --> 19,
(27,1) --> 46,
(27,2) --> 38,
(27,3) --> 52,
(27,4) --> 10,
(27,5) --> 48,
(27,6) --> 76,
(27,7) --> 58,
(27,8) --> 54,
(27,9) --> 39,
(27,10) --> 70,
(27,11) --> 75,
(27,12) --> 62,
(27,13) --> 53,
(27,14) --> 52,
(27,15) --> 53,
(27,16) --> 61,
(27,17) --> 55,
(27,18) --> 45,
(27,19) --> 2,
(27,20) --> 61,
(27,21) --> 43,
(27,22) --> 56,
(27,23) --> 66,
(27,24) --> 31,
(27,25) --> 30,
(27,26) --> 4,
(27,27) --> 0,
(27,28) --> 56,
(27,29) --> 50,
(27,30) --> 55,
(27,31) --> 54,
(27,32) --> 59,
(27,33) --> 78,
(27,34) --> 81,
(27,35) --> 36,
(27,36) --> 58,
(27,37) --> 39,
(27,38) --> 2,
(27,39) --> 5,
(27,40) --> 63,
(28,0) --> 59,
(28,1) --> 10,
(28,2) --> 72,
(28,3) --> 97,
(28,4) --> 63,
(28,5) --> 42,
(28,6) --> 50,
(28,7) --> 42,
(28,8) --> 38,
(28,9) --> 83,
(28,10) --> 46,
(28,11) --> 41,
(28,12) --> 39,
(28,13) --> 40,
(28,14) --> 8,
(28,15) --> 45,
(28,16) --> 43,
(28,17) --> 5,
(28,18) --> 92,
(28,19) --> 54,
(28,20) --> 44,
(28,21) --> 91,
(28,22) --> 45,
(28,23) --> 41,
(28,24) --> 66,
(28,25) --> 57,
(28,26) --> 51,
(28,27) --> 56,
(28,28) --> 0,
(28,29) --> 9,
(28,30) --> 41,
(28,31) --> 45,
(28,32) --> 37,
(28,33) --> 44,
(28,34) --> 44,
(28,35) --> 65,
(28,36) --> 38,
(28,37) --> 84,
(28,38) --> 58,
(28,39) --> 58,
(28,40) --> 44,
(29,0) --> 56,
(29,1) --> 9,
(29,2) --> 70,
(29,3) --> 94,
(29,4) --> 58,
(29,5) --> 34,
(29,6) --> 57,
(29,7) --> 35,
(29,8) --> 30,
(29,9) --> 80,
(29,10) --> 40,
(29,11) --> 49,
(29,12) --> 33,
(29,13) --> 32,
(29,14) --> 2,
(29,15) --> 37,
(29,16) --> 36,
(29,17) --> 5,
(29,18) --> 89,
(29,19) --> 48,
(29,20) --> 37,
(29,21) --> 88,
(29,22) --> 37,
(29,23) --> 35,
(29,24) --> 64,
(29,25) --> 56,
(29,26) --> 46,
(29,27) --> 50,
(29,28) --> 9,
(29,29) --> 0,
(29,30) --> 34,
(29,31) --> 37,
(29,32) --> 30,
(29,33) --> 51,
(29,34) --> 52,
(29,35) --> 64,
(29,36) --> 30,
(29,37) --> 81,
(29,38) --> 52,
(29,39) --> 53,
(29,40) --> 37,
(30,0) --> 70,
(30,1) --> 41,
(30,2) --> 88,
(30,3) --> 107,
(30,4) --> 65,
(30,5) --> 8,
(30,6) --> 90,
(30,7) --> 3,
(30,8) --> 4,
(30,9) --> 93,
(30,10) --> 16,
(30,11) --> 82,
(30,12) --> 9,
(30,13) --> 2,
(30,14) --> 34,
(30,15) --> 5,
(30,16) --> 6,
(30,17) --> 36,
(30,18) --> 100,
(30,19) --> 54,
(30,20) --> 6,
(30,21) --> 98,
(30,22) --> 4,
(30,23) --> 12,
(30,24) --> 81,
(30,25) --> 75,
(30,26) --> 51,
(30,27) --> 55,
(30,28) --> 41,
(30,29) --> 34,
(30,30) --> 0,
(30,31) --> 4,
(30,32) --> 8,
(30,33) --> 85,
(30,34) --> 85,
(30,35) --> 83,
(30,36) --> 6,
(30,37) --> 94,
(30,38) --> 56,
(30,39) --> 60,
(30,40) --> 8,
(31,0) --> 70,
(31,1) --> 44,
(31,2) --> 89,
(31,3) --> 107,
(31,4) --> 64,
(31,5) --> 7,
(31,6) --> 93,
(31,7) --> 6,
(31,8) --> 8,
(31,9) --> 93,
(31,10) --> 18,
(31,11) --> 86,
(31,12) --> 13,
(31,13) --> 5,
(31,14) --> 37,
(31,15) --> 1,
(31,16) --> 8,
(31,17) --> 40,
(31,18) --> 100,
(31,19) --> 53,
(31,20) --> 9,
(31,21) --> 98,
(31,22) --> 2,
(31,23) --> 15,
(31,24) --> 81,
(31,25) --> 76,
(31,26) --> 51,
(31,27) --> 54,
(31,28) --> 45,
(31,29) --> 37,
(31,30) --> 4,
(31,31) --> 0,
(31,32) --> 12,
(31,33) --> 89,
(31,34) --> 89,
(31,35) --> 84,
(31,36) --> 10,
(31,37) --> 94,
(31,38) --> 55,
(31,39) --> 59,
(31,40) --> 10,
(32,0) --> 73,
(32,1) --> 38,
(32,2) --> 90,
(32,3) --> 111,
(32,4) --> 69,
(32,5) --> 15,
(32,6) --> 86,
(32,7) --> 7,
(32,8) --> 6,
(32,9) --> 97,
(32,10) --> 12,
(32,11) --> 78,
(32,12) --> 3,
(32,13) --> 9,
(32,14) --> 29,
(32,15) --> 13,
(32,16) --> 6,
(32,17) --> 31,
(32,18) --> 104,
(32,19) --> 58,
(32,20) --> 7,
(32,21) --> 102,
(32,22) --> 11,
(32,23) --> 7,
(32,24) --> 83,
(32,25) --> 77,
(32,26) --> 55,
(32,27) --> 59,
(32,28) --> 37,
(32,29) --> 30,
(32,30) --> 8,
(32,31) --> 12,
(32,32) --> 0,
(32,33) --> 81,
(32,34) --> 81,
(32,35) --> 85,
(32,36) --> 2,
(32,37) --> 97,
(32,38) --> 61,
(32,39) --> 64,
(32,40) --> 8,
(33,0) --> 69,
(33,1) --> 45,
(33,2) --> 70,
(33,3) --> 97,
(33,4) --> 81,
(33,5) --> 85,
(33,6) --> 10,
(33,7) --> 86,
(33,8) --> 81,
(33,9) --> 86,
(33,10) --> 90,
(33,11) --> 3,
(33,12) --> 83,
(33,13) --> 84,
(33,14) --> 51,
(33,15) --> 88,
(33,16) --> 87,
(33,17) --> 49,
(33,18) --> 94,
(33,19) --> 76,
(33,20) --> 88,
(33,21) --> 95,
(33,22) --> 89,
(33,23) --> 85,
(33,24) --> 68,
(33,25) --> 60,
(33,26) --> 75,
(33,27) --> 78,
(33,28) --> 44,
(33,29) --> 51,
(33,30) --> 85,
(33,31) --> 89,
(33,32) --> 81,
(33,33) --> 0,
(33,34) --> 4,
(33,35) --> 64,
(33,36) --> 82,
(33,37) --> 87,
(33,38) --> 80,
(33,39) --> 77,
(33,40) --> 88,
(34,0) --> 73,
(34,1) --> 45,
(34,2) --> 74,
(34,3) --> 101,
(34,4) --> 84,
(34,5) --> 85,
(34,6) --> 14,
(34,7) --> 86,
(34,8) --> 81,
(34,9) --> 90,
(34,10) --> 89,
(34,11) --> 6,
(34,12) --> 83,
(34,13) --> 84,
(34,14) --> 51,
(34,15) --> 89,
(34,16) --> 87,
(34,17) --> 49,
(34,18) --> 98,
(34,19) --> 79,
(34,20) --> 88,
(34,21) --> 99,
(34,22) --> 89,
(34,23) --> 85,
(34,24) --> 72,
(34,25) --> 64,
(34,26) --> 78,
(34,27) --> 81,
(34,28) --> 44,
(34,29) --> 52,
(34,30) --> 85,
(34,31) --> 89,
(34,32) --> 81,
(34,33) --> 4,
(34,34) --> 0,
(34,35) --> 68,
(34,36) --> 81,
(34,37) --> 91,
(34,38) --> 83,
(34,39) --> 80,
(34,40) --> 88,
(35,0) --> 16,
(35,1) --> 56,
(35,2) --> 7,
(35,3) --> 34,
(35,4) --> 30,
(35,5) --> 77,
(35,6) --> 58,
(35,7) --> 86,
(35,8) --> 81,
(35,9) --> 22,
(35,10) --> 97,
(35,11) --> 62,
(35,12) --> 88,
(35,13) --> 81,
(35,14) --> 66,
(35,15) --> 83,
(35,16) --> 88,
(35,17) --> 67,
(35,18) --> 30,
(35,19) --> 35,
(35,20) --> 89,
(35,21) --> 31,
(35,22) --> 85,
(35,23) --> 92,
(35,24) --> 6,
(35,25) --> 8,
(35,26) --> 37,
(35,27) --> 36,
(35,28) --> 65,
(35,29) --> 64,
(35,30) --> 83,
(35,31) --> 84,
(35,32) --> 85,
(35,33) --> 64,
(35,34) --> 68,
(35,35) --> 0,
(35,36) --> 84,
(35,37) --> 23,
(35,38) --> 36,
(35,39) --> 31,
(35,40) --> 90,
(36,0) --> 72,
(36,1) --> 39,
(36,2) --> 89,
(36,3) --> 110,
(36,4) --> 68,
(36,5) --> 13,
(36,6) --> 87,
(36,7) --> 5,
(36,8) --> 4,
(36,9) --> 96,
(36,10) --> 13,
(36,11) --> 79,
(36,12) --> 4,
(36,13) --> 7,
(36,14) --> 30,
(36,15) --> 11,
(36,16) --> 5,
(36,17) --> 32,
(36,18) --> 103,
(36,19) --> 57,
(36,20) --> 6,
(36,21) --> 101,
(36,22) --> 9,
(36,23) --> 8,
(36,24) --> 82,
(36,25) --> 76,
(36,26) --> 54,
(36,27) --> 58,
(36,28) --> 38,
(36,29) --> 30,
(36,30) --> 6,
(36,31) --> 10,
(36,32) --> 2,
(36,33) --> 82,
(36,34) --> 81,
(36,35) --> 84,
(36,36) --> 0,
(36,37) --> 96,
(36,38) --> 59,
(36,39) --> 62,
(36,40) --> 7,
(37,0) --> 25,
(37,1) --> 74,
(37,2) --> 17,
(37,3) --> 13,
(37,4) --> 30,
(37,5) --> 87,
(37,6) --> 81,
(37,7) --> 97,
(37,8) --> 92,
(37,9) --> 1,
(37,10) --> 109,
(37,11) --> 85,
(37,12) --> 100,
(37,13) --> 92,
(37,14) --> 83,
(37,15) --> 92,
(37,16) --> 99,
(37,17) --> 85,
(37,18) --> 8,
(37,19) --> 40,
(37,20) --> 100,
(37,21) --> 8,
(37,22) --> 95,
(37,23) --> 104,
(37,24) --> 20,
(37,25) --> 28,
(37,26) --> 43,
(37,27) --> 39,
(37,28) --> 84,
(37,29) --> 81,
(37,30) --> 94,
(37,31) --> 94,
(37,32) --> 97,
(37,33) --> 87,
(37,34) --> 91,
(37,35) --> 23,
(37,36) --> 96,
(37,37) --> 0,
(37,38) --> 39,
(37,39) --> 34,
(37,40) --> 102,
(38,0) --> 20,
(38,1) --> 48,
(38,2) --> 38,
(38,3) --> 51,
(38,4) --> 9,
(38,5) --> 49,
(38,6) --> 78,
(38,7) --> 59,
(38,8) --> 55,
(38,9) --> 38,
(38,10) --> 72,
(38,11) --> 77,
(38,12) --> 64,
(38,13) --> 54,
(38,14) --> 54,
(38,15) --> 54,
(38,16) --> 62,
(38,17) --> 57,
(38,18) --> 44,
(38,19) --> 4,
(38,20) --> 63,
(38,21) --> 42,
(38,22) --> 57,
(38,23) --> 67,
(38,24) --> 31,
(38,25) --> 31,
(38,26) --> 6,
(38,27) --> 2,
(38,28) --> 58,
(38,29) --> 52,
(38,30) --> 56,
(38,31) --> 55,
(38,32) --> 61,
(38,33) --> 80,
(38,34) --> 83,
(38,35) --> 36,
(38,36) --> 59,
(38,37) --> 39,
(38,38) --> 0,
(38,39) --> 5,
(38,40) --> 64,
(39,0) --> 15,
(39,1) --> 48,
(39,2) --> 33,
(39,3) --> 48,
(39,4) --> 6,
(39,5) --> 52,
(39,6) --> 75,
(39,7) --> 62,
(39,8) --> 58,
(39,9) --> 34,
(39,10) --> 75,
(39,11) --> 74,
(39,12) --> 67,
(39,13) --> 57,
(39,14) --> 55,
(39,15) --> 58,
(39,16) --> 65,
(39,17) --> 57,
(39,18) --> 40,
(39,19) --> 6,
(39,20) --> 66,
(39,21) --> 39,
(39,22) --> 61,
(39,23) --> 70,
(39,24) --> 26,
(39,25) --> 26,
(39,26) --> 9,
(39,27) --> 5,
(39,28) --> 58,
(39,29) --> 53,
(39,30) --> 60,
(39,31) --> 59,
(39,32) --> 64,
(39,33) --> 77,
(39,34) --> 80,
(39,35) --> 31,
(39,36) --> 62,
(39,37) --> 34,
(39,38) --> 5,
(39,39) --> 0,
(39,40) --> 67,
(40,0) --> 77,
(40,1) --> 46,
(40,2) --> 95,
(40,3) --> 115,
(40,4) --> 73,
(40,5) --> 16,
(40,6) --> 94,
(40,7) --> 5,
(40,8) --> 9,
(40,9) --> 101,
(40,10) --> 8,
(40,11) --> 86,
(40,12) --> 6,
(40,13) --> 10,
(40,14) --> 37,
(40,15) --> 11,
(40,16) --> 2,
(40,17) --> 39,
(40,18) --> 108,
(40,19) --> 62,
(40,20) --> 1,
(40,21) --> 106,
(40,22) --> 8,
(40,23) --> 6,
(40,24) --> 88,
(40,25) --> 83,
(40,26) --> 59,
(40,27) --> 63,
(40,28) --> 44,
(40,29) --> 37,
(40,30) --> 8,
(40,31) --> 10,
(40,32) --> 8,
(40,33) --> 88,
(40,34) --> 88,
(40,35) --> 90,
(40,36) --> 7,
(40,37) --> 102,
(40,38) --> 64,
(40,39) --> 67,
(40,40) --> 0)
letting orderWeights be function (
1 --> 6
,
2 --> 11
,
3 --> 14
,
4 --> 7
,
5 --> 12
,
6 --> 16
,
7 --> 6
,
8 --> 18
,
9 --> 7
,
10 --> 20
,
11 --> 7
,
12 --> 23
,
13 --> 16
,
14 --> 10
,
15 --> 9
,
16 --> 18
,
17 --> 8
,
18 --> 15
,
19 --> 9
,
20 --> 23
,
21 --> 7
,
22 --> 15
,
23 --> 14
,
24 --> 21
,
25 --> 25
,
26 --> 14
,
27 --> 11
,
28 --> 19
,
29 --> 12
,
30 --> 8
,
31 --> 25
,
32 --> 17
,
33 --> 22
,
34 --> 11
,
35 --> 16
,
36 --> 16
,
37 --> 8
,
38 --> 23
,
39 --> 15
,
40 --> 13
)
letting vehicleCapacity be 100
